 67 72 48 47 12 13  7 83 81 81 91 45 78 49 57
 40 56 68 44 63 64 60 74 99 39 31 51 31 55 87
 43 27 11 40 16  7 21 55 86 16 48 98 41 26 98
 89 17  3 45  1 13 98 40 59 78 15 64 43 23 58
 59 49 18 55 63 21  5 13 41 56 93 73 31 35 85
  7 60 79 26 54 75 14 40 17 71 89 97 11 36  8
 19 58 26 65 68 34 76 95 39 89 70 28 40  1 68
 76 40 85 70 65 11 89 68 42 73 26  5 41 97 30
 95 31  9 97 70 31 66  6 71 23 20 42 45 99 81
 35 89 73 66 13 30 26 90 61 44 42 85 38 50 84
 32  8 69 26 87 13 12 46 23 55 28 28 69 83 57
 99 53  7 70  2 99 93 58 34 38 18 32  7 37 46
 41 13 55 16 33 42  4 49 68 28 44 63  8 25 89
 22 78 55 68 87 18 81 92 93 44 23 74 92 15 55
 79 13  6 58 80 36 55 61 33 99 87 24 60 57 39